
Gurobi 11.0.3 (linux64) logging started Fri Nov 22 12:25:12 2024

Set parameter LogFile to value "/home/yihong/Coding/OR_SUC/SUC_results_bigM100000_thread4/case24_ieee_rts_theta0.1_epsilon0.05_gurobi_seed680000_num_gen100_N_WDR100_load_scaling_factor1_exact_T28quadra_cost.txt"
Set parameter TimeLimit to value 3600
Gurobi Optimizer version 11.0.3 build v11.0.3rc0 (linux64 - "Ubuntu 20.04.6 LTS")

CPU model: AMD EPYC 7532 32-Core Processor, instruction set [SSE2|AVX|AVX2]
Thread count: 64 physical cores, 128 logical processors, using up to 4 threads

Optimize a model with 67335 rows, 34921 columns and 1546834 nonzeros
Model fingerprint: 0x96f4970b
Model has 2800 quadratic constraints
Variable types: 32021 continuous, 2900 integer (2900 binary)
Coefficient statistics:
  Matrix range     [3e-06, 1e+05]
  QMatrix range    [2e-03, 8e-03]
  QLMatrix range   [3e-01, 6e+01]
  Objective range  [1e+00, 1e+00]
  Bounds range     [1e+00, 1e+00]
  RHS range        [1e+00, 1e+05]
Presolve removed 54996 rows and 14779 columns
Presolve time: 0.45s
Presolved: 12339 rows, 20142 columns, 68663 nonzeros
Presolved model has 2800 quadratic constraint(s)
Variable types: 17246 continuous, 2896 integer (2896 binary)

Root relaxation: objective 3.368378e+04, 9634 iterations, 0.32 seconds (0.47 work units)

    Nodes    |    Current Node    |     Objective Bounds      |     Work
 Expl Unexpl |  Obj  Depth IntInf | Incumbent    BestBd   Gap | It/Node Time

     0     0 33683.7765    0   10          - 33683.7765      -     -    0s
     0     0 260903.166    0  995          - 260903.166      -     -    1s
     0     0 302089.713    0  993          - 302089.713      -     -    1s
     0     0 627514.273    0 1035          - 627514.273      -     -    2s
     0     0 628472.118    0  709          - 628472.118      -     -    2s
     0     0 629404.159    0  568          - 629404.159      -     -    2s
     0     0 629454.289    0  568          - 629454.289      -     -    2s
     0     0 629757.799    0  557          - 629757.799      -     -    2s
     0     0 629765.257    0  553          - 629765.257      -     -    3s
     0     0 629765.473    0  553          - 629765.473      -     -    3s
     0     2 629765.473    0  553          - 629765.473      -     -    3s
   159   180 630030.102   36  479          - 629890.384      -  49.6    5s
H  888   394                    630486.40164 629890.384  0.09%  21.8    6s
*  888   394             282    630486.40164 629890.384  0.09%  21.8    6s

Cutting planes:
  Gomory: 5
  Implied bound: 644
  MIR: 188
  Flow cover: 339

Explored 951 nodes (49317 simplex iterations) in 7.40 seconds (9.95 work units)
Thread count was 4 (of 128 available processors)

Solution count 2: 630486 630486 

Optimal solution found (tolerance 1.00e-03)
Warning: max constraint violation (3.1911e-07) exceeds tolerance
Best objective 6.304864016428e+05, best bound 6.298903836900e+05, gap 0.0945%
